p cnf 25 64
a 2 20 0
e 1 3 4 5 6 7 8 9 10 11 12 13 14 15 16 17 18 19 21 22 23 24 25 0
-3 -1 0
-3 2 0
1 -2 3 0
-5 -2 0
-5 -4 0
2 4 5 0
6 3 0
6 5 0
-3 -5 -6 0
-8 7 0
-8 2 0
-7 -2 8 0
10 9 0
10 4 0
-9 -4 -10 0
-8 10 -11 0
8 -10 -11 0
-8 -10 11 0
8 10 11 0
12 -6 0
12 11 0
6 -11 -12 0
14 1 0
14 13 0
-1 -13 -14 0
-14 -1 -15 0
14 1 -15 0
-14 1 15 0
14 -1 15 0
16 -1 0
16 -15 0
1 15 -16 0
-16 -14 -17 0
16 14 -17 0
-16 14 17 0
16 -14 17 0
16 17 -18 0
-16 -17 -18 0
16 -17 18 0
-16 17 18 0
21 -19 0
21 -20 0
19 20 -21 0
18 -21 -22 0
-18 21 -22 0
18 21 22 0
-18 -21 22 0
23 14 0
23 -15 0
-14 15 -23 0
22 23 -24 0
-22 -23 -24 0
22 -23 24 0
-22 23 24 0
25 12 0
25 -24 0
-12 24 -25 0
-17 -13 -8 -23 5 -10 -2 0
22 -23 18 -2 4 -12 0
16 2 0
7 18 3 0
22 18 -13 2 -12 -15 0
-18 -16 12 -3 -8 7 1 0
25 0
